
Log started (V20.1.0.0) Sun May  1 02:48:46 2022


Problem 'file.lp' read.
Read time = 0.00 sec. (0.00 ticks)
Version identifier: 20.1.0.0 | 2020-11-10 | 9bedb6d68
Tried aggregator 1 time.
LP Presolve eliminated 1 rows and 8 columns.
All rows and columns eliminated.
Presolve time = 0.00 sec. (0.00 ticks)

Dual simplex - Optimal:  Objective =  3.0000000000e+00
Solution time =    0.00 sec.  Iterations = 0 (0)
Deterministic time = 0.00 ticks  (2.91 ticks/sec)


Variable Name           Solution Value
X#7                          30.000000
All other variables matching '*' are 0.

Log started (V20.1.0.0) Sun May  1 03:08:21 2022


Problem 'file.lp' read.
Read time = 0.00 sec. (0.00 ticks)
Version identifier: 20.1.0.0 | 2020-11-10 | 9bedb6d68
Tried aggregator 1 time.
LP Presolve eliminated 4 rows and 8 columns.
All rows and columns eliminated.
Presolve time = 0.00 sec. (0.00 ticks)

Dual simplex - Optimal:  Objective =  3.0000000000e+00
Solution time =    0.00 sec.  Iterations = 0 (0)
Deterministic time = 0.00 ticks  (4.70 ticks/sec)


Variable Name           Solution Value
X#7                          30.000000
All other variables matching '*' are 0.

Log started (V20.1.0.0) Sun May  1 03:08:54 2022


Problem 'file.lp' read.
Read time = 0.00 sec. (0.00 ticks)
Version identifier: 20.1.0.0 | 2020-11-10 | 9bedb6d68
Tried aggregator 1 time.
LP Presolve eliminated 4 rows and 8 columns.
All rows and columns eliminated.
Presolve time = 0.00 sec. (0.00 ticks)

Dual simplex - Optimal:  Objective =  2.9400000000e+00
Solution time =    0.00 sec.  Iterations = 0 (0)
Deterministic time = 0.01 ticks  (5.52 ticks/sec)


Problem 'file.lp' read.
Read time = 0.00 sec. (0.00 ticks)
No solution exists.

Problem 'file.lp' read.
Read time = 0.00 sec. (0.00 ticks)
Version identifier: 20.1.0.0 | 2020-11-10 | 9bedb6d68
Tried aggregator 1 time.
LP Presolve eliminated 4 rows and 8 columns.
All rows and columns eliminated.
Presolve time = 0.00 sec. (0.00 ticks)

Dual simplex - Optimal:  Objective =  2.9400000000e+00
Solution time =    0.00 sec.  Iterations = 0 (0)
Deterministic time = 0.01 ticks  (5.52 ticks/sec)


Variable Name           Solution Value
X#1                           3.000000
X#7                          27.000000
All other variables matching '*' are 0.

Log started (V20.1.0.0) Sun May  1 03:12:17 2022


Problem 'file.lp' read.
Read time = 0.00 sec. (0.00 ticks)
Version identifier: 20.1.0.0 | 2020-11-10 | 9bedb6d68
Tried aggregator 1 time.
LP Presolve eliminated 7 rows and 8 columns.
All rows and columns eliminated.
Presolve time = 0.00 sec. (0.01 ticks)

Dual simplex - Optimal:  Objective =  2.9400000000e+00
Solution time =    0.00 sec.  Iterations = 0 (0)
Deterministic time = 0.01 ticks  (7.89 ticks/sec)


Variable Name           Solution Value
X#1                           3.000000
X#7                          27.000000
All other variables matching '*' are 0.

Log started (V20.1.0.0) Sun May  1 03:12:39 2022


Problem 'file.lp' read.
Read time = 0.00 sec. (0.00 ticks)
Version identifier: 20.1.0.0 | 2020-11-10 | 9bedb6d68
Tried aggregator 1 time.
LP Presolve eliminated 7 rows and 8 columns.
All rows and columns eliminated.
Presolve time = 0.00 sec. (0.01 ticks)

Dual simplex - Optimal:  Objective =  2.9400000000e+00
Solution time =    0.00 sec.  Iterations = 0 (0)
Deterministic time = 0.01 ticks  (7.89 ticks/sec)


Variable Name           Solution Value
X#1                           3.000000
X#7                          27.000000
All other variables matching '*' are 0.

Log started (V20.1.0.0) Sun May  1 03:14:26 2022


Problem 'file.lp' read.
Read time = 0.00 sec. (0.00 ticks)
Version identifier: 20.1.0.0 | 2020-11-10 | 9bedb6d68
Tried aggregator 1 time.
LP Presolve eliminated 10 rows and 8 columns.
All rows and columns eliminated.
Presolve time = 0.02 sec. (0.01 ticks)

Dual simplex - Optimal:  Objective =  2.6200000000e+00
Solution time =    0.02 sec.  Iterations = 0 (0)
Deterministic time = 0.01 ticks  (0.61 ticks/sec)


Variable Name           Solution Value
X#1                           3.000000
X#7                          19.000000
X#8                           8.000000
All other variables matching '*' are 0.

Log started (V20.1.0.0) Sun May  1 03:17:26 2022


Problem 'file.lp' read.
Read time = 0.00 sec. (0.00 ticks)
Version identifier: 20.1.0.0 | 2020-11-10 | 9bedb6d68
Bound infeasibility column 'X#8'.
Presolve time = 0.00 sec. (0.00 ticks)
Presolve - Infeasible.
Solution time =    0.00 sec.
Deterministic time = 0.00 ticks  (1.66 ticks/sec)
No solution exists.

Log started (V20.1.0.0) Sun May  1 03:18:48 2022


Problem 'file.lp' read.
Read time = 0.00 sec. (0.00 ticks)
Version identifier: 20.1.0.0 | 2020-11-10 | 9bedb6d68
Bound infeasibility column 'X#8'.
Presolve time = 0.00 sec. (0.00 ticks)
Presolve - Infeasible.
Solution time =    0.00 sec.
Deterministic time = 0.00 ticks  (1.17 ticks/sec)
No solution exists.

Log started (V20.1.0.0) Sun May  1 03:19:15 2022


Problem 'file.lp' read.
Read time = 0.00 sec. (0.00 ticks)
Version identifier: 20.1.0.0 | 2020-11-10 | 9bedb6d68
Tried aggregator 1 time.
LP Presolve eliminated 4 rows and 8 columns.
All rows and columns eliminated.
Presolve time = 0.00 sec. (0.00 ticks)

Dual simplex - Optimal:  Objective =  2.6200000000e+00
Solution time =    0.00 sec.  Iterations = 0 (0)
Deterministic time = 0.01 ticks  (5.54 ticks/sec)


Variable Name           Solution Value
X#1                           3.000000
X#7                          19.000000
X#8                           8.000000
All other variables matching '*' are 0.

Log started (V20.1.0.0) Sun May  1 03:21:33 2022


Problem 'file.lp' read.
Read time = 0.00 sec. (0.00 ticks)
Version identifier: 20.1.0.0 | 2020-11-10 | 9bedb6d68
Tried aggregator 1 time.
LP Presolve eliminated 5 rows and 8 columns.
All rows and columns eliminated.
Presolve time = 0.00 sec. (0.00 ticks)

Dual simplex - Optimal:  Objective =  2.5800000000e+00
Solution time =    0.00 sec.  Iterations = 0 (0)
Deterministic time = 0.01 ticks  (6.36 ticks/sec)


Variable Name           Solution Value
X#1                           5.000000
X#7                          17.000000
X#8                           8.000000
All other variables matching '*' are 0.

Log started (V20.1.0.0) Sun May  1 03:22:45 2022


Problem 'file.lp' read.
Read time = 0.00 sec. (0.00 ticks)
Version identifier: 20.1.0.0 | 2020-11-10 | 9bedb6d68
Tried aggregator 1 time.
LP Presolve eliminated 5 rows and 8 columns.
All rows and columns eliminated.
Presolve time = 0.00 sec. (0.00 ticks)

Dual simplex - Optimal:  Objective =  2.8900000000e+00
Solution time =    0.00 sec.  Iterations = 0 (0)
Deterministic time = 0.01 ticks  (6.17 ticks/sec)


Log started (V20.1.0.0) Sun May  1 03:23:55 2022


Problem 'file.lp' read.
Read time = 0.00 sec. (0.00 ticks)
Version identifier: 20.1.0.0 | 2020-11-10 | 9bedb6d68
Tried aggregator 1 time.
LP Presolve eliminated 9 rows and 1 columns.
Reduced LP has 4 rows, 7 columns, and 16 nonzeros.
Presolve time = 0.00 sec. (0.01 ticks)

Iteration log . . .
Iteration:     1   Dual objective     =             2.500000

Dual simplex - Optimal:  Objective =  2.5000000000e+00
Solution time =    0.00 sec.  Iterations = 1 (0)
Deterministic time = 0.02 ticks  (15.80 ticks/sec)


Variable Name           Solution Value
X#1                           6.000000
X#3                           2.000000
X#5                          10.000000
X#6                           4.000000
X#7                           6.000000
X#8                           2.000000
All other variables matching '*' are 0.
